54
75
60	4
59	7
58	9
57	11
56	9
55	5
54	6
53	9
52	6
51	6
50	9
49	11
48	2
47	11
46	4
45	6
44	11
43	8
42	10
41	8
40	7
39	13
38	3
37	4
36	9
35	3
34	11
33	4
32	5
31	8
30	7
29	7
28	7
27	11
26	6
25	5
24	7
23	5
22	10
21	8
20	12
19	10
18	8
17	7
16	6
15	8
14	6
13	3
12	10
11	1
10	14
9	7
8	9
7	7
